% number of games is 150
num = 150;
cap = 5;
refill = 2;
fun = [16, -17, 16, 15, 1, -10, 9, -20, -19, -3, -10, -8, 18, 8, 0, 7, -2, 12, -14, 7, -14, 2, 1, -11, -13, -15, -8, 12, 12, 6, 10, 12, 9, 9, 11, -9, 10, -14, 0, -6, 1, -12, -13, -19, 3, -12, -14, -2, 12, 3, -15, -12, 18, -18, -9, -9, -1, 11, 7, -15, -19, 19, 0, 14, 17, 9, -12, 18, -6, 19, -14, -8, 8, -3, 14, 10, 9, -9, 4, 4, -9, -5, 18, -9, -1, 0, 20, 5, 17, -5, -18, 17, -9, 1, 19, -11, 18, -16, -19, 12, -7, 6, 12, 18, 5, -17, 0, -20, 18, -8, 7, -8, 4, -2, -10, 1, -15, -14, 3, 3, 7, 6, -4, 7, -5, -18, 11, 2, 20, 6, 2, -12, -3, 4, 4, -16, -4, 2, -17, -7, 2, -2, 2, -9, -19, -10, 1, -8, 11, -1];
